NAME : block_06.424434.tour
COMMENT : Length = 424434
COMMENT : Found by LKH-3 [Keld Helsgaun] Mon Feb  2 23:04:43 2026
TYPE : TOUR
DIMENSION : 120
TOUR_SECTION
35
34
43
54
66
53
42
33
32
41
31
23
16
11
7
4
8
12
17
24
25
26
19
18
13
9
5
3
6
10
14
15
20
27
28
21
22
29
30
38
47
58
70
82
93
103
104
94
83
71
59
48
39
40
49
60
72
84
95
105
112
113
106
96
85
73
61
50
51
52
63
62
74
86
97
107
114
115
118
119
116
117
110
111
101
100
89
88
99
109
108
98
87
75
76
64
65
77
78
90
91
102
2
120
1
92
81
69
57
46
37
36
45
56
68
80
79
67
55
44
-1
EOF
